id: 1789
name: pds-60
group: mittelmann/pds
method: 1

Gurobi 7.0.2 (linux64, Matlab) logging started Tue Apr 24 01:27:07 2018


Gurobi 7.0.2 (linux64) logging started Tue Apr 24 01:27:07 2018

Optimize a model with 99431 rows, 329643 columns and 712779 nonzeros
Coefficient statistics:
  Matrix range     [1e+00, 1e+00]
  Objective range  [3e+01, 1e+05]
  Bounds range     [8e+00, 2e+04]
  RHS range        [3e+01, 9e+04]
Presolve removed 53624 rows and 53013 columns
Presolve time: 0.62s
Presolved: 45807 rows, 276630 columns, 625881 nonzeros

Iteration    Objective       Primal Inf.    Dual Inf.      Time
       0    1.0141807e+10   3.089423e+06   0.000000e+00      1s
   51956    1.4254782e+10   5.916323e+05   0.000000e+00      5s
   66958    1.4265904e+10   1.009629e+03   0.000000e+00     10s
   67182    1.4265904e+10   0.000000e+00   0.000000e+00     11s

Solved in 67182 iterations and 10.67 seconds
Optimal objective  1.426590441e+10
status: OPTIMAL
